GLPSOL--GLPK LP/MIP Solver 5.0
Parameter(s) specified in the command line:
 --lp ../modeles/4_259.lp --log 4_259.log
Reading problem data from '../modeles/4_259.lp'...
1053 rows, 2080 columns, 7272 non-zeros
1036 integer variables, all of which are binary
3143 lines were read
GLPK Integer Optimizer 5.0
1053 rows, 2080 columns, 7272 non-zeros
1036 integer variables, all of which are binary
Preprocessing...
1032 constraint coefficient(s) were reduced
1053 rows, 2076 columns, 7268 non-zeros
1036 integer variables, all of which are binary
Scaling...
 A: min|aij| =  5.963e-05  max|aij| =  4.000e+00  ratio =  6.708e+04
GM: min|aij| =  6.214e-02  max|aij| =  1.609e+01  ratio =  2.590e+02
EQ: min|aij| =  3.861e-03  max|aij| =  1.000e+00  ratio =  2.590e+02
2N: min|aij| =  3.816e-03  max|aij| =  1.764e+00  ratio =  4.623e+02
Constructing initial basis...
Size of triangular part is 1053
Solving LP relaxation...
GLPK Simplex Optimizer 5.0
1053 rows, 2076 columns, 7268 non-zeros
      0: obj =   8.000000000e+00 inf =   1.950e+01 (9)
     67: obj =   4.998881932e-01 inf =   0.000e+00 (0)
*   233: obj =  -1.999894426e+00 inf =   2.664e-16 (0)
OPTIMAL LP SOLUTION FOUND
Integer optimization begins...
Long-step dual simplex will be used
+   233: mip =     not found yet >=              -inf        (1; 0)
+   380: >>>>>  -1.999894426e+00 >=  -1.999894426e+00 < 0.1% (147; 0)
+   380: mip =  -1.999894426e+00 >=     tree is empty   0.0% (0; 293)
INTEGER OPTIMAL SOLUTION FOUND
Time used:   0.2 secs
Memory used: 3.1 Mb (3216370 bytes)
